33 2000
4 171
5 128
8 171
2 170
8 135
8 171
9 116
2 127
6 145
9 181
2 171
11 175
3 159
11 175
5 17
8 135
2 159
8 145
11 158
10 116
4 101
6 153
10 127
5 127
3 127
9 153
3 128
5 181
4 101
6 154
2 154
7 158
2 170
